WARNING: for repeatability, setting FPU to use double precision
============================[ Problem Statistics ]=============================
|                                                                             |
|  Number of variables:            50                                         |
|  Number of clauses:             218                                         |
|  Parse time:                   0.00 s                                       |
|                                                                             |
============================[ Search Statistics ]==============================
| Conflicts |          ORIGINAL         |          LEARNT          | Progress |
|           |    Vars  Clauses Literals |    Limit  Clauses Lit/Cl |          |
===============================================================================
===============================================================================
restarts              : 1
conflicts             : 23             (16324 /sec)
decisions             : 34             (0.00 % random) (24131 /sec)
propagations          : 440            (312278 /sec)
conflict literals     : 90             (21.74 % deleted)
Memory used           : 20.00 MB
CPU time              : 0.001409 s

SATISFIABLE
